     Program PWSCF v.7.0 starts on  1Sep2025 at  0:13:30

     Waiting for input...
     Reading input from standard input

     Current dimensions of program PWSCF are:
     Max number of different atomic species (ntypx) = 10
     Max number of k-points (npk) =  40000
     Max angular momentum in pseudopotentials (lmaxx) =  4
     file Fe.UPF: wavefunction(s)  3D renormalized

     Using Slab Decomposition

     bravais-lattice index     =            2
     lattice parameter (alat)  =      11.3400  a.u.
     unit-cell volume          =     364.5685 (a.u.)^3
     number of atoms/cell      =            4
     number of atomic types    =            4
     number of electrons       =        60.00
     number of Kohn-Sham states=           36
     kinetic-energy cutoff     =      60.0000  Ry
     charge density cutoff     =     480.0000  Ry
     scf convergence threshold =      1.0E-08
     mixing beta               =       0.7000
     number of iterations used =            8  plain     mixing
     energy convergence thresh.=      1.0E-04
     force convergence thresh. =      1.0E-03
     press convergence thresh. =      5.0E-01
     Exchange-correlation=  SLA  PW   PBX  PBC
                           (   1   4   3   4   0   0   0)
     nstep                     =           50

     celldm(1)=  11.340000  celldm(2)=   0.000000  celldm(3)=   0.000000
     celldm(4)=   0.000000  celldm(5)=   0.000000  celldm(6)=   0.000000

     crystal axes: (cart. coord. in units of alat)
               a(1) = (  -0.500000   0.000000   0.500000 )
               a(2) = (   0.000000   0.500000   0.500000 )
               a(3) = (  -0.500000   0.500000   0.000000 )

     reciprocal axes: (cart. coord. in units 2 pi/alat)
               b(1) = ( -1.000000 -1.000000  1.000000 )
               b(2) = (  1.000000  1.000000  1.000000 )
               b(3) = ( -1.000000  1.000000 -1.000000 )

     PseudoPot. # 1 for Co read from file:
     /home/washingmachine/Galaxy/CoFeMnTi-1/Pseudo/Co.UPF
     MD5 check sum: 5f91765df6ddd3222702df6e7b74a16d
     Pseudo is Ultrasoft + core correction, Zval = 17.0
     Generated by new atomic code, or converted to UPF format
     Using radial grid of  863 points,  6 beta functions with:
                l(1) =   0
                l(2) =   0
                l(3) =   1
                l(4) =   1
                l(5) =   2
                l(6) =   2
     Q(r) pseudized with  8 coefficients,  rinner =    1.200   1.200   1.200
                                                       1.200   1.200

     PseudoPot. # 2 for Fe read from file:
     /home/washingmachine/Galaxy/CoFeMnTi-1/Pseudo/Fe.UPF
     MD5 check sum: e86618425769142926afa95317d90200
     Pseudo is Projector augmented-wave + core cor, Zval = 16.0
     Generated using "atomic" code by A. Dal Corso  v.5.0.99 svn rev. 10869
     Shape of augmentation charge: PSQ
     Using radial grid of 1191 points,  6 beta functions with:
                l(1) =   0
                l(2) =   0
                l(3) =   1
                l(4) =   1
                l(5) =   2
                l(6) =   2
     Q(r) pseudized with 0 coefficients

     PseudoPot. # 3 for Mn read from file:
     /home/washingmachine/Galaxy/CoFeMnTi-1/Pseudo/Mn.UPF
     MD5 check sum: 82ef2b46521d7a7d9e736dc3972e4928
     Pseudo is Ultrasoft + core correction, Zval = 15.0
     Generated by new atomic code, or converted to UPF format
     Using radial grid of  859 points,  6 beta functions with:
                l(1) =   0
                l(2) =   0
                l(3) =   1
                l(4) =   1
                l(5) =   2
                l(6) =   2
     Q(r) pseudized with  8 coefficients,  rinner =    0.950   0.950   0.950
                                                       0.950   0.950

     PseudoPot. # 4 for Ti read from file:
     /home/washingmachine/Galaxy/CoFeMnTi-1/Pseudo/Ti.UPF
     MD5 check sum: 88a00a6731bd790ddea75d31a80cb452
     Pseudo is Ultrasoft + core correction, Zval = 12.0
     Generated by new atomic code, or converted to UPF format
     Using radial grid of  851 points,  6 beta functions with:
                l(1) =   0
                l(2) =   0
                l(3) =   1
                l(4) =   1
                l(5) =   2
                l(6) =   2
     Q(r) pseudized with  6 coefficients,  rinner =    1.000   1.000   1.000
                                                       1.000   1.000

     atomic species   valence    mass     pseudopotential
        Co            17.00    58.93300     Co( 1.00)
        Fe            16.00    55.84500     Fe( 1.00)
        Mn            15.00    54.93800     Mn( 1.00)
        Ti            12.00    47.86700     Ti( 1.00)

     Starting magnetic structure
     atomic species   magnetization
        Co           1.000
        Fe           1.000
        Mn           1.000
        Ti           0.100

     24 Sym. Ops. (no inversion) found

   Cartesian axes

     site n.     atom                  positions (alat units)
         1           Fe  tau(   1) = (   0.0000000   0.0000000   0.0000000  )
         2           Co  tau(   2) = (  -0.5000000   0.5000000   0.5000000  )
         3           Mn  tau(   3) = (  -0.2500000   0.2500000   0.2500000  )
         4           Ti  tau(   4) = (  -0.7500000   0.7500000   0.7500000  )

     number of k points=    29  Marzari-Vanderbilt smearing, width (Ry)=  0.0200
                       cart. coord. in units 2pi/alat
        k(    1) = (   0.0000000   0.0000000   0.0000000), wk =   0.0019531
        k(    2) = (  -0.1250000   0.1250000  -0.1250000), wk =   0.0156250
        k(    3) = (  -0.2500000   0.2500000  -0.2500000), wk =   0.0156250
        k(    4) = (  -0.3750000   0.3750000  -0.3750000), wk =   0.0156250
        k(    5) = (   0.5000000  -0.5000000   0.5000000), wk =   0.0078125
        k(    6) = (   0.0000000   0.2500000   0.0000000), wk =   0.0117188
        k(    7) = (  -0.1250000   0.3750000  -0.1250000), wk =   0.0468750
        k(    8) = (  -0.2500000   0.5000000  -0.2500000), wk =   0.0468750
        k(    9) = (   0.6250000  -0.3750000   0.6250000), wk =   0.0468750
        k(   10) = (   0.5000000  -0.2500000   0.5000000), wk =   0.0468750
        k(   11) = (   0.3750000  -0.1250000   0.3750000), wk =   0.0468750
        k(   12) = (   0.2500000   0.0000000   0.2500000), wk =   0.0234375
        k(   13) = (   0.0000000   0.5000000   0.0000000), wk =   0.0117188
        k(   14) = (  -0.1250000   0.6250000  -0.1250000), wk =   0.0468750
        k(   15) = (   0.7500000  -0.2500000   0.7500000), wk =   0.0468750
        k(   16) = (   0.6250000  -0.1250000   0.6250000), wk =   0.0468750
        k(   17) = (   0.5000000   0.0000000   0.5000000), wk =   0.0234375
        k(   18) = (   0.0000000   0.7500000   0.0000000), wk =   0.0117188
        k(   19) = (   0.8750000  -0.1250000   0.8750000), wk =   0.0468750
        k(   20) = (   0.7500000   0.0000000   0.7500000), wk =   0.0234375
        k(   21) = (   0.0000000  -1.0000000   0.0000000), wk =   0.0058594
        k(   22) = (  -0.2500000   0.5000000   0.0000000), wk =   0.0468750
        k(   23) = (   0.6250000  -0.3750000   0.8750000), wk =   0.0937500
        k(   24) = (   0.5000000  -0.2500000   0.7500000), wk =   0.0468750
        k(   25) = (   0.7500000  -0.2500000   1.0000000), wk =   0.0468750
        k(   26) = (   0.6250000  -0.1250000   0.8750000), wk =   0.0937500
        k(   27) = (   0.5000000   0.0000000   0.7500000), wk =   0.0468750
        k(   28) = (  -0.2500000  -1.0000000   0.0000000), wk =   0.0234375
        k(   29) = (  -0.5000000  -1.0000000   0.0000000), wk =   0.0117188

     Check: negative core charge=   -0.000043
     Generating pointlists ...
     new r_m :   0.1786 (alat units)  2.0255 (a.u.) for type    1
     new r_m :   0.1786 (alat units)  2.0255 (a.u.) for type    2
     new r_m :   0.1786 (alat units)  2.0255 (a.u.) for type    3
     new r_m :   0.1786 (alat units)  2.0255 (a.u.) for type    4

     Initial potential from superposition of free atoms

     starting charge      57.4994, renormalised to      60.0000

     negative rho (up, down):  8.153E-04 7.297E-04
     Starting wfcs are   49 randomized atomic wfcs

     Self-consistent Calculation

     iteration #  1     ecut=    60.00 Ry     beta= 0.70
     Davidson diagonalization with overlap
     ethr =  1.00E-02,  avg # of iterations =  4.0

     negative rho (up, down):  0.000E+00 3.340E-04

     total energy              =    -938.07353994 Ry
     estimated scf accuracy    <      41.70357825 Ry

     total magnetization       =    12.00 Bohr mag/cell
     absolute magnetization    =    13.63 Bohr mag/cell

[...]

     Magnetic moment per site  (integrated on atomic sphere of radius R)
     atom   1 (R=0.179)  charge= 14.6890  magn=  1.5494
     atom   2 (R=0.179)  charge= 15.7891  magn=  1.2440
     atom   3 (R=0.179)  charge= 13.4291  magn=  2.8565
     atom   4 (R=0.179)  charge=  9.9954  magn= -0.6311

     End of self-consistent calculation

 ------ SPIN UP ------------

          k = 0.0000 0.0000 0.0000 (  2837 PWs)   bands (ev):

   -80.1298 -71.7261 -64.8147 -43.3823 -43.3823 -43.3823 -40.9204 -37.7834
   -37.7834 -37.7834 -33.5390 -33.5390 -33.5390 -17.1710 -17.1710 -17.1710
     8.1253  11.7013  11.7013  12.9724  12.9724  12.9724  13.0826  13.0826
    13.0826  14.2618  14.2618  14.2618  14.5204  14.5204  14.9426  14.9426
    17.1947  17.1947  17.1947  18.0412

          k =-0.1250 0.1250-0.1250 (  2824 PWs)   bands (ev):

[...]

 ------ SPIN DOWN ----------

[...]

     the Fermi energy is    15.4458 ev

!    total energy              =    -958.25449695 Ry
     estimated scf accuracy    <          5.4E-09 Ry
     smearing contrib. (-TS)   =       0.00765702 Ry
     internal energy E=F+TS    =    -958.26215398 Ry

     The total energy is F=E-TS. E is the sum of the following terms:
     one-electron contribution =    -436.57260376 Ry
     hartree contribution      =     248.86429070 Ry
     xc contribution           =    -111.97962752 Ry
     ewald contribution        =    -582.42789790 Ry
     one-center paw contrib.   =     -76.14631549 Ry

[...]

     convergence has been achieved in  26 iterations

[...]

     Forces acting on atoms (cartesian axes, Ry/au):

     atom    1 type  2   force =     0.00000000    0.00000000    0.00000000
     atom    2 type  1   force =     0.00000000    0.00000000   -0.00000000
     atom    3 type  3   force =     0.00000000    0.00000000    0.00000000
     atom    4 type  4   force =     0.00000000   -0.00000000    0.00000000

     Total force =     0.000000     Total SCF correction =     0.000000

     Computing stress (Cartesian axis) and pressure

     negative rho (up, down):  9.589E-04 1.344E-04
          total   stress  (Ry/bohr**3)                   (kbar)     P=     -134.87
  -0.00091682   0.00000000   0.00000000         -134.87        0.00        0.00
   0.00000000  -0.00091682   0.00000000            0.00     -134.87        0.00
   0.00000000  -0.00000000  -0.00091682            0.00       -0.00     -134.87

     BFGS Geometry Optimization
     Energy error            =      0.0E+00 Ry
[...]
     new r_m :   0.1745 (alat units)  1.9791 (a.u.) for type    2
     new r_m :   0.1745 (alat units)  1.9791 (a.u.) for type    3
     new r_m :   0.1745 (alat units)  1.9791 (a.u.) for type    4

[...]

     iteration #  1     ecut=    60.00 Ry     beta= 0.70
     Davidson diagonalization with overlap
     c_bands:  1 eigenvalues not converged
     c_bands:  1 eigenvalues not converged
     c_bands:  1 eigenvalues not converged
     c_bands:  1 eigenvalues not converged
     c_bands:  1 eigenvalues not converged
     c_bands:  1 eigenvalues not converged
     c_bands:  1 eigenvalues not converged
     c_bands:  1 eigenvalues not converged
     c_bands:  1 eigenvalues not converged
     c_bands:  1 eigenvalues not converged
     c_bands:  1 eigenvalues not converged
     c_bands:  1 eigenvalues not converged
     ethr =  1.00E-06,  avg # of iterations = 15.5

[...]

     Energy error            =      1.6E-02 Ry
     Gradient error          =      2.2E-30 Ry/Bohr
     Cell gradient error     =      5.2E+01 kbar

[...]

     enthalpy           old  =    -958.2544969523 Ry
     enthalpy           new  =    -958.2707270088 Ry

     CASE: enthalpy          _new < enthalpy          _old

[...]

     negative rho (up, down):  7.849E-04 1.062E-04
     extrapolated charge   57.61207, renormalised to   60.00000
     Generating pointlists ...
     new r_m :   0.1722 (alat units)  1.9524 (a.u.) for type    1
     new r_m :   0.1722 (alat units)  1.9524 (a.u.) for type    2
     new r_m :   0.1722 (alat units)  1.9524 (a.u.) for type    3
     new r_m :   0.1722 (alat units)  1.9524 (a.u.) for type    4

[...]

     negative rho (up, down):  7.828E-04 1.555E-04
     extrapolated charge   60.57288, renormalised to   60.00000
     Generating pointlists ...

[...]

     number of scf cycles    =   4
     number of bfgs steps    =   3

     enthalpy           old  =    -958.2724598658 Ry
     enthalpy           new  =    -958.2726362160 Ry

     CASE: enthalpy          _new < enthalpy          _old

     new trust radius        =       0.0008133925 bohr
     new conv_thr            =            1.0E-10 Ry

     new unit-cell volume =    329.57479 a.u.^3 (    48.83794 Ang^3 )
     density =      7.39804 g/cm^3

[...]

ATOMIC_POSITIONS (crystal)
Fe           -0.0000000000       -0.0000000000        0.0000000000
Co            0.5000000000        0.5000000000        0.5000000000
Mn            0.2500000000        0.2500000000        0.2500000000
Ti            0.7500000000        0.7500000000        0.7500000000

     Writing config-only to output data dir /home/washingmachine/Galaxy/CoFeMnTi-1/tmp/CoFeMnTi_config1.save/
     NEW-OLD atomic charge density approx. for the potential

     Check: negative core charge=   -0.000038

     negative rho (up, down):  7.839E-04 1.284E-04
     extrapolated charge   59.96135, renormalised to   60.00000
     Generating pointlists ...

[...]

     Energy error            =      9.3E-07 Ry
     Gradient error          =      8.7E-30 Ry/Bohr
     Cell gradient error     =      5.2E-02 kbar

     bfgs converged in   5 scf cycles and   4 bfgs steps
     (criteria: energy <  1.0E-04 Ry, force <  1.0E-03Ry/Bohr, cell <  5.0E-01kbar)

     End of BFGS Geometry Optimization

     Final enthalpy           =    -958.2726371443 Ry

     File /home/washingmachine/Galaxy/CoFeMnTi-1/tmp/CoFeMnTi_config1.bfgs deleted, as requested
Begin final coordinates
     new unit-cell volume =    329.57479 a.u.^3 (    48.83794 Ang^3 )
     density =      7.39804 g/cm^3

CELL_PARAMETERS (alat= 11.34000000)
  -0.483461178   0.000000000   0.483461178
   0.000000000   0.483461178   0.483461178
  -0.483461178   0.483461178  -0.000000000

ATOMIC_POSITIONS (crystal)
Fe           -0.0000000000       -0.0000000000        0.0000000000
Co            0.5000000000        0.5000000000        0.5000000000
Mn            0.2500000000        0.2500000000        0.2500000000
Ti            0.7500000000        0.7500000000        0.7500000000
End final coordinates

     Writing config-only to output data dir /home/washingmachine/Galaxy/CoFeMnTi-1/tmp/CoFeMnTi_config1.save/

     Final scf calculation at the relaxed structure.
     The G-vectors are recalculated for the final unit cell
     Results may differ from those at the preceding step.

     Using Slab Decomposition

     bravais-lattice index     =            2
     lattice parameter (alat)  =      11.3400  a.u.
     unit-cell volume          =     329.5748 (a.u.)^3
     number of atoms/cell      =            4
     number of atomic types    =            4
     number of electrons       =        60.00
     number of Kohn-Sham states=           36
     kinetic-energy cutoff     =      60.0000  Ry
     charge density cutoff     =     480.0000  Ry
     scf convergence threshold =      1.0E-10
     mixing beta               =       0.7000
     number of iterations used =            8  plain     mixing
     press convergence thresh. =      5.0E-01
     Exchange-correlation=  SLA  PW   PBX  PBC
                           (   1   4   3   4   0   0   0)

     celldm(1)=  11.340000  celldm(2)=   0.000000  celldm(3)=   0.000000
     celldm(4)=   0.000000  celldm(5)=   0.000000  celldm(6)=   0.000000

     crystal axes: (cart. coord. in units of alat)
               a(1) = (  -0.483461   0.000000   0.483461 )
               a(2) = (   0.000000   0.483461   0.483461 )
               a(3) = (  -0.483461   0.483461  -0.000000 )

     reciprocal axes: (cart. coord. in units 2 pi/alat)
               b(1) = ( -1.034209 -1.034209  1.034209 )
               b(2) = (  1.034209  1.034209  1.034209 )
               b(3) = ( -1.034209  1.034209 -1.034209 )

     PseudoPot. # 1 for Co read from file:
     /home/washingmachine/Galaxy/CoFeMnTi-1/Pseudo/Co.UPF
     MD5 check sum: 5f91765df6ddd3222702df6e7b74a16d
     Pseudo is Ultrasoft + core correction, Zval = 17.0
     Generated by new atomic code, or converted to UPF format
     Using radial grid of  863 points,  6 beta functions with:
                l(1) =   0
                l(2) =   0
                l(3) =   1
                l(4) =   1
                l(5) =   2
                l(6) =   2
     Q(r) pseudized with  8 coefficients,  rinner =    1.200   1.200   1.200
                                                       1.200   1.200

     PseudoPot. # 2 for Fe read from file:
     /home/washingmachine/Galaxy/CoFeMnTi-1/Pseudo/Fe.UPF
     MD5 check sum: e86618425769142926afa95317d90200
     Pseudo is Projector augmented-wave + core cor, Zval = 16.0
     Generated using "atomic" code by A. Dal Corso  v.5.0.99 svn rev. 10869
     Shape of augmentation charge: PSQ
     Using radial grid of 1191 points,  6 beta functions with:
                l(1) =   0
                l(2) =   0
                l(3) =   1
                l(4) =   1
                l(5) =   2
                l(6) =   2
     Q(r) pseudized with 0 coefficients

     PseudoPot. # 3 for Mn read from file:
     /home/washingmachine/Galaxy/CoFeMnTi-1/Pseudo/Mn.UPF
     MD5 check sum: 82ef2b46521d7a7d9e736dc3972e4928
     Pseudo is Ultrasoft + core correction, Zval = 15.0
     Generated by new atomic code, or converted to UPF format
     Using radial grid of  859 points,  6 beta functions with:
                l(1) =   0
                l(2) =   0
                l(3) =   1
                l(4) =   1
                l(5) =   2
                l(6) =   2
     Q(r) pseudized with  8 coefficients,  rinner =    0.950   0.950   0.950
                                                       0.950   0.950

     PseudoPot. # 4 for Ti read from file:
     /home/washingmachine/Galaxy/CoFeMnTi-1/Pseudo/Ti.UPF
     MD5 check sum: 88a00a6731bd790ddea75d31a80cb452
     Pseudo is Ultrasoft + core correction, Zval = 12.0
     Generated by new atomic code, or converted to UPF format
     Using radial grid of  851 points,  6 beta functions with:
                l(1) =   0
                l(2) =   0
                l(3) =   1
                l(4) =   1
                l(5) =   2
                l(6) =   2
     Q(r) pseudized with  6 coefficients,  rinner =    1.000   1.000   1.000
                                                       1.000   1.000

     atomic species   valence    mass     pseudopotential
        Co            17.00    58.93300     Co( 1.00)
        Fe            16.00    55.84500     Fe( 1.00)
        Mn            15.00    54.93800     Mn( 1.00)
        Ti            12.00    47.86700     Ti( 1.00)

     Starting magnetic structure
     atomic species   magnetization
        Co           0.070
        Fe           0.076
        Mn           0.197
        Ti          -0.040

     24 Sym. Ops. (no inversion) found

   Cartesian axes

     site n.     atom                  positions (alat units)
         1           Fe  tau(   1) = (   0.0000000   0.0000000  -0.0000000  )
         2           Co  tau(   2) = (  -0.4834612   0.4834612   0.4834612  )
         3           Mn  tau(   3) = (  -0.2417306   0.2417306   0.2417306  )
         4           Ti  tau(   4) = (  -0.7251918   0.7251918   0.7251918  )

     number of k points=    29  Marzari-Vanderbilt smearing, width (Ry)=  0.0200
                       cart. coord. in units 2pi/alat
        k(    1) = (   0.0000000   0.0000000   0.0000000), wk =   0.0019531
        k(    2) = (  -0.1292762   0.1292762  -0.1292762), wk =   0.0156250
        k(    3) = (  -0.2585523   0.2585523  -0.2585523), wk =   0.0156250
        k(    4) = (  -0.3878285   0.3878285  -0.3878285), wk =   0.0156250
        k(    5) = (   0.5171046  -0.5171046   0.5171046), wk =   0.0078125
        k(    6) = (   0.0000000   0.2585523   0.0000000), wk =   0.0117188
        k(    7) = (  -0.1292762   0.3878285  -0.1292762), wk =   0.0468750
        k(    8) = (  -0.2585523   0.5171046  -0.2585523), wk =   0.0468750
        k(    9) = (   0.6463808  -0.3878285   0.6463808), wk =   0.0468750
        k(   10) = (   0.5171046  -0.2585523   0.5171046), wk =   0.0468750
        k(   11) = (   0.3878285  -0.1292762   0.3878285), wk =   0.0468750
        k(   12) = (   0.2585523   0.0000000   0.2585523), wk =   0.0234375
        k(   13) = (   0.0000000   0.5171046   0.0000000), wk =   0.0117188
        k(   14) = (  -0.1292762   0.6463808  -0.1292762), wk =   0.0468750
        k(   15) = (   0.7756569  -0.2585523   0.7756569), wk =   0.0468750
        k(   16) = (   0.6463808  -0.1292762   0.6463808), wk =   0.0468750
        k(   17) = (   0.5171046   0.0000000   0.5171046), wk =   0.0234375
        k(   18) = (   0.0000000   0.7756569   0.0000000), wk =   0.0117188
        k(   19) = (   0.9049331  -0.1292762   0.9049331), wk =   0.0468750
        k(   20) = (   0.7756569   0.0000000   0.7756569), wk =   0.0234375
        k(   21) = (   0.0000000  -1.0342092   0.0000000), wk =   0.0058594
        k(   22) = (  -0.2585523   0.5171046   0.0000000), wk =   0.0468750
        k(   23) = (   0.6463808  -0.3878285   0.9049331), wk =   0.0937500
        k(   24) = (   0.5171046  -0.2585523   0.7756569), wk =   0.0468750
        k(   25) = (   0.7756569  -0.2585523   1.0342092), wk =   0.0468750
        k(   26) = (   0.6463808  -0.1292762   0.9049331), wk =   0.0937500
        k(   27) = (   0.5171046   0.0000000   0.7756569), wk =   0.0468750
        k(   28) = (  -0.2585523  -1.0342092   0.0000000), wk =   0.0234375
        k(   29) = (  -0.5171046  -1.0342092   0.0000000), wk =   0.0117188

     Check: negative core charge=   -0.000046
     Generating pointlists ...

     Initial potential from superposition of free atoms

     starting charge      57.4994, renormalised to      60.0000

     negative rho (up, down):  7.507E-04 8.269E-04
     Starting wfcs are   49 randomized atomic wfcs

     Self-consistent Calculation

     iteration #  1     ecut=    60.00 Ry     beta= 0.70
     Davidson diagonalization with overlap
     c_bands:  1 eigenvalues not converged
     c_bands:  2 eigenvalues not converged
     c_bands:  2 eigenvalues not converged
     c_bands:  4 eigenvalues not converged
     c_bands:  1 eigenvalues not converged
     c_bands:  1 eigenvalues not converged
     c_bands:  1 eigenvalues not converged
     c_bands:  1 eigenvalues not converged
     c_bands:  1 eigenvalues not converged
     c_bands:  2 eigenvalues not converged
     c_bands:  1 eigenvalues not converged
     c_bands:  2 eigenvalues not converged
     c_bands:  1 eigenvalues not converged
     c_bands:  1 eigenvalues not converged
     c_bands:  1 eigenvalues not converged
     c_bands:  1 eigenvalues not converged
     c_bands:  2 eigenvalues not converged
     c_bands:  1 eigenvalues not converged
     c_bands:  1 eigenvalues not converged
     c_bands:  1 eigenvalues not converged
     c_bands:  1 eigenvalues not converged
     c_bands:  3 eigenvalues not converged
     c_bands:  1 eigenvalues not converged
     c_bands:  1 eigenvalues not converged
     c_bands:  3 eigenvalues not converged
     c_bands:  1 eigenvalues not converged
     c_bands:  1 eigenvalues not converged
     c_bands:  1 eigenvalues not converged
     c_bands:  1 eigenvalues not converged
     c_bands:  1 eigenvalues not converged
     c_bands:  2 eigenvalues not converged
     c_bands:  3 eigenvalues not converged
     c_bands:  1 eigenvalues not converged
     c_bands:  2 eigenvalues not converged
     c_bands:  1 eigenvalues not converged
     c_bands:  2 eigenvalues not converged
     c_bands:  2 eigenvalues not converged
     c_bands:  2 eigenvalues not converged
     c_bands:  1 eigenvalues not converged
     c_bands:  3 eigenvalues not converged
     c_bands:  2 eigenvalues not converged
     c_bands:  2 eigenvalues not converged
     c_bands:  3 eigenvalues not converged
     ethr =  1.00E-06,  avg # of iterations = 19.4

[...]

     total energy              =    -958.27139673 Ry
     estimated scf accuracy    <          1.1E-10 Ry

[...]

     iteration # 28     ecut=    60.00 Ry     beta= 0.70
     Davidson diagonalization with overlap
     ethr =  1.90E-13,  avg # of iterations =  4.5

[...]

     Magnetic moment per site  (integrated on atomic sphere of radius R)
     atom   1 (R=0.172)  charge= 14.5949  magn=  1.1124
     atom   2 (R=0.172)  charge= 15.6948  magn=  1.0913
     atom   3 (R=0.172)  charge= 13.3299  magn=  2.6279
     atom   4 (R=0.172)  charge=  9.9133  magn= -0.3993

     End of self-consistent calculation

 ------ SPIN UP ------------

[...]

 ------ SPIN DOWN ----------

[...]

          k = 0.5171 0.0000 0.7757 (  2578 PWs)   bands (ev):

[...]

          k =-0.5171-1.0342 0.0000 (  2580 PWs)   bands (ev):

   -76.5825 -68.2266 -59.7408 -39.9261 -39.9100 -39.9095 -39.2660 -34.3357
   -34.3338 -34.3309 -28.5532 -28.5518 -28.5497 -15.5786 -15.5777 -15.5710
    13.6992  13.7398  13.8807  14.4682  16.0192  16.1727  16.2011  16.2771
    16.4215  16.5135  16.5404  16.9231  18.2286  18.5340  18.5422  18.7586
    19.4817  19.4966  19.6003  20.0633

     the Fermi energy is    17.4937 ev

!    total energy              =    -958.27139673 Ry
     estimated scf accuracy    <          4.6E-11 Ry
     smearing contrib. (-TS)   =       0.00507585 Ry
     internal energy E=F+TS    =    -958.27647258 Ry

     The total energy is F=E-TS. E is the sum of the following terms:
     one-electron contribution =    -404.95095660 Ry
     hartree contribution      =     237.36924214 Ry
     xc contribution           =    -112.19334555 Ry
     ewald contribution        =    -602.35229218 Ry
     one-center paw contrib.   =     -76.14912039 Ry

     total magnetization       =     4.20 Bohr mag/cell
     absolute magnetization    =     5.66 Bohr mag/cell

     convergence has been achieved in  28 iterations

     negative rho (up, down):  7.802E-04 1.259E-04

     Forces acting on atoms (cartesian axes, Ry/au):

     atom    1 type  2   force =     0.00000000    0.00000000    0.00000000
     atom    2 type  1   force =     0.00000000    0.00000000    0.00000000
     atom    3 type  3   force =     0.00000000    0.00000000   -0.00000000
     atom    4 type  4   force =    -0.00000000   -0.00000000    0.00000000

     Total force =     0.000000     Total SCF correction =     0.000000

     Computing stress (Cartesian axis) and pressure

     negative rho (up, down):  7.802E-04 1.259E-04
          total   stress  (Ry/bohr**3)                   (kbar)     P=        3.52
   0.00002390  -0.00000000   0.00000000            3.52       -0.00        0.00
   0.00000000   0.00002390  -0.00000000            0.00        3.52       -0.00
   0.00000000  -0.00000000   0.00002390            0.00       -0.00        3.52

     Writing all to output data dir /home/washingmachine/Galaxy/CoFeMnTi-1/tmp/CoFeMnTi_config1.save/

     General routines

   This run was terminated on:   0:49:58   1Sep2025

   JOB DONE.